Traveling Salesman Problem/TSP_generados/Aleatorio1620390928_9.tsp
NAME: Aleatorio1620390928_9.tsp
COMMENT: Randomly generated scenario
TYPE: TSP
DIMENSION: 9
EDGE_WEIGHT_TYPE: ATT
NODE_COORD_SECTION
1 16.42 2.09
2 15.28 35.4
3 3.3 28.09
4 0.7 32.89
5 37.28 8.57
6 40.05 17.91
7 8.51 22.08
8 47.2 49.48
9 23.3 37.24
