Traveling Salesman Problem/TSP_generados/Aleatorio1620390928_9.opt.tour
NAME: Aleatorio1620390928_9.opt.tour
COMMENT: Optimal solution for Aleatorio1620390928_9 (148.74066206521448)
TYPE: TOUR
DIMENSION: 9
TOUR_SECTION
1 7 3 4 2 9 8 6 5
-1
EOF
